Solving original (integer) problem with strategy gdp.hull_exact...
--- Job model.gms Start 02/15/26 07:08:01 52.2.0 d8e408be LEX-LEG x86 64bit/Linux
--- Applying:
    /package/gams/52.2/gmsprmun.txt
--- GAMS Parameters defined
    Input /local/scratch/a/sgusev/repos/k_means/data/gams_gurobi_gdp.hull_exact/no_mode/2026-02-15_07-08-00/original/model.gms
    Output /local/scratch/a/sgusev/repos/k_means/data/gams_gurobi_gdp.hull_exact/no_mode/2026-02-15_07-08-00/original/output.lst
    ScrDir /local/scratch/a/sgusev/repos/k_means/data/gams_gurobi_gdp.hull_exact/no_mode/2026-02-15_07-08-00/original/225a/
    SysDir /package/gams/52.2/
    CurDir /local/scratch/a/sgusev/repos/k_means/data/gams_gurobi_gdp.hull_exact/no_mode/2026-02-15_07-08-00/original/
    LogOption 3
    AppendLog 1
Licensee: David Bernal / SECQUOIA Research Group         G251008+0003Ac-GEN
          Purdue University, Davidson School of Chemical EngineeringDCE4838
          225a/gamslice.dat
          5a82958a-fbca-4a23
          node:66820903 mem:995 cores:48 ipport:52155 v:2                  
          Evaluation license: Not for commercial or production use
          The time-limited license stops working on : Jun 30, 2027
System information: 48 physical cores and 995 Gb physical memory detected
GAMS 52.2.0   Copyright (C) 1987-2025 GAMS Development. All rights reserved
--- Starting compilation
--- model.gms(6729) 2 Mb
--- $echo File /local/scratch/a/sgusev/repos/k_means/data/gams_gurobi_gdp.hull_exact/no_mode/2026-02-15_07-08-00/original/gurobi.opt
--- model.gms(9796) 3 Mb
--- Starting execution: elapsed 0:00:00.031
--- model.gms(6738) 4 Mb
--- Generating MINLP model GAMS_MODEL
--- model.gms(6742) 7 Mb
---   2,060 rows  941 columns  4,989 non-zeroes
---   3,150 nl-code  525 nl-non-zeroes
---   75 discrete-columns
--- Range statistics (absolute non-zero finite values)
--- RHS       [min, max] : [ 1.000E+00, 1.000E+00] - Zero values observed as well
--- Bound     [min, max] : [ 1.000E+00, 1.500E+02] - Zero values observed as well
--- Matrix    [min, max] : [ 1.000E+00, 1.500E+02] - Zero values observed as well
--- model.gms(6742) 5 Mb
--- Executing GUROBI (Solvelink=5): elapsed 0:00:00.041
Reading parameter(s) from "/local/scratch/a/sgusev/repos/k_means/data/gams_gurobi_gdp.hull_exact/no_mode/2026-02-15_07-08-00/original/gurobi.opt"
>>  NonConvex 2
>>  Threads 1
>>  MIPGap 1e-06
>>  MIPGapAbs 1e-10
>>  FeasibilityTol 1e-06
>>  OptimalityTol 1e-06
>>  IntFeasTol 1e-05
Finished reading from "/local/scratch/a/sgusev/repos/k_means/data/gams_gurobi_gdp.hull_exact/no_mode/2026-02-15_07-08-00/original/gurobi.opt"

... GRB_LICENSE_FILE = /local/scratch/a/sgusev/gurobi.lic

    Gurobi           52.2.0 d8e408be Dec 8, 2025           LEG x86 64bit/Linux    

... GAMS/Gurobi Link license.
... GMO Q Extraction (ThreePass): 0.00s

    Gurobi Optimizer version 13.0.0 build v13.0.0rc1 (linux64 - "Oracle Linux Server 9.7")
    
    CPU model: AMD EPYC 7643 48-Core Processor, instruction set [SSE2|AVX|AVX2]
    Thread count: 48 physical cores, 96 logical processors, using up to 1 threads
    
    Non-default parameters:
    TimeLimit  300
    MIPGap  1e-06
    LogToConsole  0
    NonConvex  2
    Threads  1
    
    Optimize a model with 1984 rows, 940 columns and 4448 nonzeros (Min)
    Model fingerprint: 0xb8632060
    Model has 15 linear objective coefficients
    Model has 75 quadratic constraints
    Variable types: 865 continuous, 75 integer (0 binary)
    Coefficient statistics:
      Matrix range     [1e+00, 2e+02]
      QMatrix range    [8e-03, 3e+00]
      Objective range  [1e+00, 1e+00]
      Bounds range     [1e+00, 2e+02]
      RHS range        [1e+00, 1e+00]
    Presolve removed 375 rows and 390 columns
    Presolve time: 0.01s
    Presolved: 2359 rows, 1375 columns, 6533 nonzeros
    Presolved model has 375 quadratic constraint(s)
    Variable types: 1300 continuous, 75 integer (75 binary)
    
    Root relaxation: objective 0.000000e+00, 519 iterations, 0.01 seconds (0.01 work units)
    
        Nodes    |    Current Node    |     Objective Bounds      |     Work
     Expl Unexpl |  Obj  Depth IntInf | Incumbent    BestBd   Gap | It/Node Time
    
    H    0     0                      10.3965292    0.00000   100%     -    0s
    *    0     0               0      10.3965292    0.00000   100%     -    0s
         0     0    0.00000    0   16   10.39653    0.00000   100%     -    0s
         0     0    0.00000    0   20   10.39653    0.00000   100%     -    0s
         0     0    0.00000    0   20   10.39653    0.00000   100%     -    0s
         0     0    0.00000    0   21   10.39653    0.00000   100%     -    0s
    H    0     0                       8.7124983    0.00000   100%     -    0s
    *    0     0               0       8.7124983    0.00000   100%     -    0s
         0     0    0.00000    0   22    8.71250    0.00000   100%     -    0s
         0     0    0.00000    0   14    8.71250    0.00000   100%     -    0s
         0     0    0.00000    0    6    8.71250    0.00000   100%     -    0s
         0     0    0.00000    0   26    8.71250    0.00000   100%     -    0s
         0     0    0.00000    0    4    8.71250    0.00000   100%     -    0s
         0     0    0.00000    0   22    8.71250    0.00000   100%     -    0s
         0     0    0.00000    0   18    8.71250    0.00000   100%     -    0s
         0     0    0.00000    0   16    8.71250    0.00000   100%     -    0s
         0     0    0.00000    0   12    8.71250    0.00000   100%     -    0s
         0     0    0.00000    0   24    8.71250    0.00000   100%     -    0s
         0     0    0.00000    0   14    8.71250    0.00000   100%     -    0s
         0     0    0.00000    0   22    8.71250    0.00000   100%     -    0s
         0     0    0.00000    0   18    8.71250    0.00000   100%     -    0s
         0     0    0.00000    0   20    8.71250    0.00000   100%     -    0s
         0     0    0.00000    0   19    8.71250    0.00000   100%     -    0s
         0     0    0.00000    0   22    8.71250    0.00000   100%     -    0s
         0     0    0.00000    0   20    8.71250    0.00000   100%     -    0s
         0     0    0.00000    0   24    8.71250    0.00000   100%     -    0s
         0     0    0.00000    0   12    8.71250    0.00000   100%     -    0s
         0     0    0.00000    0   12    8.71250    0.00000   100%     -    0s
         0     0    0.00000    0   12    8.71250    0.00000   100%     -    0s
         0     0    0.00000    0   14    8.71250    0.00000   100%     -    0s
         0     0    0.00000    0   14    8.71250    0.00000   100%     -    0s
         0     0    0.00000    0   15    8.71250    0.00000   100%     -    0s
         0     0    0.00000    0   15    8.71250    0.00000   100%     -    0s
         0     0    0.00000    0   16    8.71250    0.00000   100%     -    0s
         0     0    0.00000    0    8    8.71250    0.00000   100%     -    0s
         0     0    0.00000    0   22    8.71250    0.00000   100%     -    0s
         0     0    0.00000    0   16    8.71250    0.00000   100%     -    0s
         0     0    0.00000    0   18    8.71250    0.00000   100%     -    0s
         0     0    0.00000    0    6    8.71250    0.00000   100%     -    0s
         0     0    0.00000    0   20    8.71250    0.00000   100%     -    0s
         0     0    0.00000    0   20    8.71250    0.00000   100%     -    0s
         0     0    0.00000    0   20    8.71250    0.00000   100%     -    0s
         0     0    0.00000    0   16    8.71250    0.00000   100%     -    0s
         0     0    0.00000    0   14    8.71250    0.00000   100%     -    0s
         0     0    0.00000    0    8    8.71250    0.00000   100%     -    0s
         0     0    0.00000    0    6    8.71250    0.00000   100%     -    0s
         0     0    0.00000    0   18    8.71250    0.00000   100%     -    0s
         0     0    0.00000    0   10    8.71250    0.00000   100%     -    0s
         0     0    0.00000    0   18    8.71250    0.00000   100%     -    0s
         0     0    0.00000    0   18    8.71250    0.00000   100%     -    0s
         0     0    0.00000    0   20    8.71250    0.00000   100%     -    0s
         0     0    0.00000    0   16    8.71250    0.00000   100%     -    0s
         0     0    0.00000    0   16    8.71250    0.00000   100%     -    0s
         0     0    0.00000    0    4    8.71250    0.00000   100%     -    0s
         0     0    0.00000    0   12    8.71250    0.00000   100%     -    0s
         0     0    0.00000    0   12    8.71250    0.00000   100%     -    1s
         0     0    0.00000    0   17    8.71250    0.00000   100%     -    1s
         0     0    0.00000    0   17    8.71250    0.00000   100%     -    1s
         0     0    0.00000    0   16    8.71250    0.00000   100%     -    1s
         0     0    0.00000    0   16    8.71250    0.00000   100%     -    1s
         0     0    0.00000    0   20    8.71250    0.00000   100%     -    1s
         0     0    0.00000    0   18    8.71250    0.00000   100%     -    1s
         0     0    0.00000    0   20    8.71250    0.00000   100%     -    1s
         0     0    0.00000    0   12    8.71250    0.00000   100%     -    1s
         0     0    0.00000    0   20    8.71250    0.00000   100%     -    1s
         0     0    0.00000    0   20    8.71250    0.00000   100%     -    1s
         0     0    0.00000    0   18    8.71250    0.00000   100%     -    1s
         0     0    0.00000    0   18    8.71250    0.00000   100%     -    1s
         0     0    0.00000    0   16    8.71250    0.00000   100%     -    1s
         0     0    0.00000    0   16    8.71250    0.00000   100%     -    1s
         0     0    0.00000    0   22    8.71250    0.00000   100%     -    1s
         0     0    0.00000    0   20    8.71250    0.00000   100%     -    1s
         0     0    0.00000    0   22    8.71250    0.00000   100%     -    1s
         0     0    0.00000    0   22    8.71250    0.00000   100%     -    1s
         0     0    0.00000    0   26    8.71250    0.00000   100%     -    1s
         0     0    0.00000    0   24    8.71250    0.00000   100%     -    1s
         0     0    0.00000    0   23    8.71250    0.00000   100%     -    1s
         0     0    0.00000    0   16    8.71250    0.00000   100%     -    1s
         0     0    0.00000    0   22    8.71250    0.00000   100%     -    1s
         0     0    0.00000    0   12    8.71250    0.00000   100%     -    1s
         0     0    0.00000    0   24    8.71250    0.00000   100%     -    1s
         0     0    0.00000    0   22    8.71250    0.00000   100%     -    1s
         0     0    0.00000    0   24    8.71250    0.00000   100%     -    1s
         0     0    0.00000    0    8    8.71250    0.00000   100%     -    1s
         0     0    0.00000    0   20    8.71250    0.00000   100%     -    1s
         0     0    0.00000    0   16    8.71250    0.00000   100%     -    1s
         0     0    0.00000    0   22    8.71250    0.00000   100%     -    1s
         0     0    0.00000    0   12    8.71250    0.00000   100%     -    1s
         0     0    0.00000    0   25    8.71250    0.00000   100%     -    1s
         0     0    0.00000    0   12    8.71250    0.00000   100%     -    1s
         0     0    0.00000    0   18    8.71250    0.00000   100%     -    1s
         0     0    0.00000    0   10    8.71250    0.00000   100%     -    1s
         0     0    0.00000    0   16    8.71250    0.00000   100%     -    1s
         0     0    0.00000    0   16    8.71250    0.00000   100%     -    1s
         0     0    0.00000    0   20    8.71250    0.00000   100%     -    1s
         0     0    0.00000    0   20    8.71250    0.00000   100%     -    1s
         0     0    0.00000    0   22    8.71250    0.00000   100%     -    1s
         0     0    0.00000    0   20    8.71250    0.00000   100%     -    1s
         0     0    0.00000    0   24    8.71250    0.00000   100%     -    1s
         0     0    0.00000    0   20    8.71250    0.00000   100%     -    1s
         0     0    0.00000    0   21    8.71250    0.00000   100%     -    1s
         0     0    0.00000    0   16    8.71250    0.00000   100%     -    1s
         0     0    0.00000    0   16    8.71250    0.00000   100%     -    1s
         0     0    0.00000    0   12    8.71250    0.00000   100%     -    1s
         0     0    0.00000    0   17    8.71250    0.00000   100%     -    1s
         0     0    0.00000    0   17    8.71250    0.00000   100%     -    1s
         0     0    0.00000    0   17    8.71250    0.00000   100%     -    2s
         0     0    0.00000    0   17    8.71250    0.00000   100%     -    2s
         0     0    0.00000    0   22    8.71250    0.00000   100%     -    2s
         0     0    0.00000    0   18    8.71250    0.00000   100%     -    2s
         0     0    0.00000    0   20    8.71250    0.00000   100%     -    2s
         0     0    0.00000    0   18    8.71250    0.00000   100%     -    2s
         0     0    0.00000    0   16    8.71250    0.00000   100%     -    2s
         0     0    0.00000    0   14    8.71250    0.00000   100%     -    2s
         0     0    0.00000    0   20    8.71250    0.00000   100%     -    2s
         0     0    0.00000    0   18    8.71250    0.00000   100%     -    2s
         0     0    0.00000    0   17    8.71250    0.00000   100%     -    2s
         0     0    0.00000    0   17    8.71250    0.00000   100%     -    2s
         0     0    0.00000    0   26    8.71250    0.00000   100%     -    2s
         0     0    0.00000    0   16    8.71250    0.00000   100%     -    2s
         0     0    0.00000    0   18    8.71250    0.00000   100%     -    2s
         0     0    0.00000    0   12    8.71250    0.00000   100%     -    2s
         0     0    0.00000    0   20    8.71250    0.00000   100%     -    2s
         0     0    0.00000    0   18    8.71250    0.00000   100%     -    2s
         0     0    0.00000    0   16    8.71250    0.00000   100%     -    2s
         0     0    0.00000    0   16    8.71250    0.00000   100%     -    2s
         0     0    0.00000    0   24    8.71250    0.00000   100%     -    2s
         0     0    0.00000    0   24    8.71250    0.00000   100%     -    2s
         0     0    0.00000    0   22    8.71250    0.00000   100%     -    2s
         0     0    0.00000    0   22    8.71250    0.00000   100%     -    2s
         0     0    0.00000    0   20    8.71250    0.00000   100%     -    2s
         0     0    0.00000    0   20    8.71250    0.00000   100%     -    2s
         0     0    0.00000    0   22    8.71250    0.00000   100%     -    2s
         0     0    0.00000    0   18    8.71250    0.00000   100%     -    2s
         0     0    0.00000    0   19    8.71250    0.00000   100%     -    2s
         0     0    0.00000    0   19    8.71250    0.00000   100%     -    2s
         0     0    0.00000    0   18    8.71250    0.00000   100%     -    2s
         0     0    0.00000    0   18    8.71250    0.00000   100%     -    2s
         0     0    0.00000    0   18    8.71250    0.00000   100%     -    2s
         0     0    0.00000    0   18    8.71250    0.00000   100%     -    2s
         0     0    0.00000    0   20    8.71250    0.00000   100%     -    2s
         0     0    0.00000    0   18    8.71250    0.00000   100%     -    2s
         0     0    0.00000    0   20    8.71250    0.00000   100%     -    2s
         0     0    0.00000    0    8    8.71250    0.00000   100%     -    2s
         0     0    0.00000    0   20    8.71250    0.00000   100%     -    2s
         0     0    0.00000    0   20    8.71250    0.00000   100%     -    2s
         0     0    0.00000    0   20    8.71250    0.00000   100%     -    2s
         0     0    0.00000    0   20    8.71250    0.00000   100%     -    2s
         0     0    0.00000    0   22    8.71250    0.00000   100%     -    2s
         0     0    0.00000    0    8    8.71250    0.00000   100%     -    2s
         0     0    0.00000    0   18    8.71250    0.00000   100%     -    2s
         0     0    0.00000    0   16    8.71250    0.00000   100%     -    2s
         0     0    0.00000    0   24    8.71250    0.00000   100%     -    2s
         0     0    0.00000    0   12    8.71250    0.00000   100%     -    2s
         0     0    0.00000    0   14    8.71250    0.00000   100%     -    2s
         0     0    0.00000    0    6    8.71250    0.00000   100%     -    2s
         0     0    0.00000    0   20    8.71250    0.00000   100%     -    2s
         0     0    0.00000    0   20    8.71250    0.00000   100%     -    2s
         0     0    0.00000    0   18    8.71250    0.00000   100%     -    2s
         0     0    0.00000    0   18    8.71250    0.00000   100%     -    3s
         0     0    0.00000    0   22    8.71250    0.00000   100%     -    3s
         0     0    0.00000    0   22    8.71250    0.00000   100%     -    3s
         0     0    0.00000    0   22    8.71250    0.00000   100%     -    3s
         0     0    0.00000    0   12    8.71250    0.00000   100%     -    3s
         0     0    0.00000    0   16    8.71250    0.00000   100%     -    3s
         0     0    0.00000    0   16    8.71250    0.00000   100%     -    3s
         0     0    0.00000    0   18    8.71250    0.00000   100%     -    3s
         0     0    0.00000    0   12    8.71250    0.00000   100%     -    3s
         0     0    0.00000    0   18    8.71250    0.00000   100%     -    3s
         0     0    0.00000    0   14    8.71250    0.00000   100%     -    3s
         0     0    0.00000    0   20    8.71250    0.00000   100%     -    3s
         0     0    0.00000    0   20    8.71250    0.00000   100%     -    3s
         0     0    0.00000    0   18    8.71250    0.00000   100%     -    3s
         0     0    0.00000    0   18    8.71250    0.00000   100%     -    3s
         0     0    0.00000    0   20    8.71250    0.00000   100%     -    3s
         0     0    0.00000    0   20    8.71250    0.00000   100%     -    3s
         0     0    0.00000    0   20    8.71250    0.00000   100%     -    3s
         0     0    0.00000    0   14    8.71250    0.00000   100%     -    3s
         0     0    0.00000    0   18    8.71250    0.00000   100%     -    3s
         0     0    0.00000    0   14    8.71250    0.00000   100%     -    3s
         0     0    0.00000    0   18    8.71250    0.00000   100%     -    3s
         0     0    0.00000    0   14    8.71250    0.00000   100%     -    3s
         0     0    0.00000    0   16    8.71250    0.00000   100%     -    3s
         0     0    0.00000    0    9    8.71250    0.00000   100%     -    3s
         0     0    0.00000    0   16    8.71250    0.00000   100%     -    3s
         0     0    0.00000    0   14    8.71250    0.00000   100%     -    3s
         0     0    0.00000    0   22    8.71250    0.00000   100%     -    3s
         0     0    0.00000    0   10    8.71250    0.00000   100%     -    3s
         0     0    0.00000    0   24    8.71250    0.00000   100%     -    3s
         0     0    0.00000    0   22    8.71250    0.00000   100%     -    3s
         0     0    0.00000    0   16    8.71250    0.00000   100%     -    3s
         0     0    0.00000    0   16    8.71250    0.00000   100%     -    3s
         0     0    0.00000    0   20    8.71250    0.00000   100%     -    3s
         0     0    0.00000    0   14    8.71250    0.00000   100%     -    3s
         0     0    0.00000    0   20    8.71250    0.00000   100%     -    3s
         0     0    0.00000    0    8    8.71250    0.00000   100%     -    3s
         0     0    0.00000    0   21    8.71250    0.00000   100%     -    3s
         0     0    0.00000    0   10    8.71250    0.00000   100%     -    3s
         0     0    0.00000    0   16    8.71250    0.00000   100%     -    3s
         0     0    0.00000    0   12    8.71250    0.00000   100%     -    3s
         0     0    0.00000    0   16    8.71250    0.00000   100%     -    3s
         0     0    0.00000    0   15    8.71250    0.00000   100%     -    3s
         0     0    0.00000    0   24    8.71250    0.00000   100%     -    3s
         0     0    0.00000    0   22    8.71250    0.00000   100%     -    3s
         0     2    0.00000    0   22    8.71250    0.00000   100%     -    4s
    H    8     8                       8.7124983    0.00000   100%   204    4s
    H    8     8                       7.4805740    0.00000   100%   204    4s
    H    8     8                       7.1725959    0.00000   100%   204    4s
    H   11    11                       7.0292934    0.00000   100%   239    4s
    H   16    16                       7.0292934    0.00000   100%   202    4s
    H   20    20                       7.0292934    0.00000   100%   208    4s
    H   20    20                       7.0292347    0.00000   100%   208    4s
    H   24    24                       7.0292312    0.00000   100%   211    4s
    H   40    40                       7.0172362    0.00000   100%   164    4s
    H   96    78                       7.0172361    0.00000   100%   112    4s
    H  113    95                       7.0172361    0.00000   100%   131    4s
    H  122   104                       7.0172360    0.00000   100%   128    4s
       126   110    3.59162   31   11    7.01724    0.00000   100%   128    5s
       325   251    3.71777   31   27    7.01724    0.00000   100%   147   10s
       368   279    0.00000   18   32    7.01724    0.00000   100%   130   15s
       404   303    5.31900   33   33    7.01724    0.00000   100%   118   20s
    H  417   295                       6.9072922    0.00000   100%   502   21s
    H  418   279                       6.7888231    0.00000   100%   502   21s
    H  420   265                       6.7888226    0.00000   100%   503   21s
    H  420   250                       6.7888218    0.00000   100%   503   21s
    H  420   237                       6.7888218    0.00000   100%   503   21s
    H  421   224                       6.7802323    0.00000   100%   503   21s
    H  423   213                       6.5031190    0.00000   100%   503   21s
    H  424   202                       6.5031176    0.00000   100%   504   22s
    H  424   191                       6.5031170    0.00000   100%   504   22s
    H  425   180                       6.5031170    0.00000   100%   504   22s
    H  425   170                       6.2145100    0.00000   100%   504   22s
    H  426   161                       6.2145096    0.00000   100%   503   22s
    H  428   153                       6.1910628    0.00000   100%   502   22s
    H  441   153                       6.1910626    0.00000   100%   499   23s
    H  441   145                       6.1910622    0.00000   100%   499   23s
    H  442   138                       6.1910621    0.00000   100%   499   23s
    H  447   134                       6.1910618    0.00000   100%   497   23s
    H  452   130                       6.1840556    0.00000   100%   496   24s
    H  455   125                       6.1840551    0.00000   100%   495   24s
    H  455   118                       6.1840548    0.00000   100%   495   24s
       462   124    2.28577   44   27    6.18405    0.00000   100%   495   25s
    H  491   126                       5.9318530    0.00000   100%   481   26s
    H  506   131                       5.9318519    0.00000   100%   488   28s
    H  506   125                       5.9318517    0.00000   100%   488   28s
    H  506   120                       5.9318514    0.00000   100%   488   28s
    H  513   120                       5.9318514    0.00000   100%   488   28s
    H  529   125                       5.9318512    0.00000   100%   486   28s
    H  538   121                       5.9318512    0.00000   100%   485   29s
    H  539   117                       5.9318511    0.00000   100%   485   29s
    H  550   117                       5.9318511    0.00000   100%   477   29s
       559   128    0.00260   22   36    5.93185    0.00000   100%   483   30s
    H  694   237                       5.9318511    0.00000   100%   452   32s
    H  756   289                       5.9318505    0.00000   100%   450   33s
    H  756   289                       5.9318505    0.00000   100%   450   33s
    H  860   356                       5.9318504    0.00000   100%   430   34s
    H  860   356                       5.9318504    0.00000   100%   430   34s
       861   359    0.21039   31   28    5.93185    0.00000   100%   431   35s
    H 1210   616                       5.6707674    0.00000   100%   390   38s
    H 1219   617                       5.6707671    0.00000   100%   390   39s
      1338   710    0.00000   20   43    5.67077    0.00000   100%   377   40s
    H 1438   774                       5.6707668    0.00000   100%   378   41s
    H 1499   816                       5.6707668    0.00000   100%   381   42s
      1685   940    0.08385   27   39    5.67077    0.00000   100%   381   45s
      2052  1139    0.00664   25   35    5.67077    0.00000   100%   376   50s
    H 2086  1167                       5.6707668    0.00000   100%   375   50s
    H 2358  1331                       5.6707668    0.00000   100%   374   53s
      2427  1374    0.00000   20   51    5.67077    0.00000   100%   375   55s
    H 2542  1450                       5.6707668    0.00000   100%   374   56s
    H 2639  1506                       5.6707668    0.00000   100%   376   58s
      2719  1564    2.88415   32   32    5.67077    0.00000   100%   379   60s
      3027  1754    0.00000   26   42    5.67077    0.00000   100%   382   65s
    H 3302  1932                       5.6707668    0.00000   100%   384   69s
      3360  1962    0.12912   29   38    5.67077    0.00000   100%   385   70s
      3746  2188    1.53032   29   35    5.67077    0.00000   100%   382   75s
    H 3767  2198                       5.6707667    0.00000   100%   382   75s
      3994  2346    1.13648   28   33    5.67077    0.00000   100%   391   80s
    H 4293  2534                       5.6707660    0.00000   100%   393   84s
      4313  2548    0.74160   25   37    5.67077    0.00000   100%   394   85s
      4647  2738    5.65783   39   26    5.67077    0.00000   100%   395   90s
      5011  2924    1.06385   29   35    5.67077    0.00000   100%   392   95s
      5421  3179    5.17518   43   23    5.67077    0.00000   100%   395  100s
      5935  3465    2.06893   37   35    5.67077    0.00000   100%   390  105s
      6373  3741    5.63282   41   21    5.67077    0.00000   100%   390  110s
      6824  4026    3.78895   41   17    5.67077    0.00058   100%   390  115s
      7327  4321    2.70776   39   32    5.67077    0.00502   100%   387  120s
      7777  4570    4.98304   42   24    5.67077    0.00871   100%   386  125s
      8300  4862    0.33241   25   40    5.67077    0.01092   100%   383  130s
      8785  5151    4.69106   35   21    5.67077    0.01547   100%   382  135s
      9311  5452    0.95610   32   37    5.67077    0.02310   100%   379  140s
      9827  5747    0.78207   27   34    5.67077    0.03209  99.4%   377  145s
     10325  6024    3.41138   41   25    5.67077    0.03858  99.3%   375  150s
     10916  6354    2.90436   32   32    5.67077    0.05608  99.0%   372  155s
     11450  6621    0.90371   30   39    5.67077    0.06377  98.9%   371  160s
     12023  6930    1.70958   35   30    5.67077    0.07918  98.6%   369  165s
     12630  7254    3.83050   40   29    5.67077    0.08630  98.5%   366  170s
     13162  7569    4.63116   43   20    5.67077    0.09747  98.3%   365  175s
     13826  7896    2.06863   30   34    5.67077    0.12571  97.8%   361  180s
     14406  8231    0.21377   24   42    5.67077    0.13698  97.6%   360  185s
     15008  8564    0.29685   27   43    5.67077    0.14907  97.4%   358  190s
     15572  8881    1.90088   30   29    5.67077    0.15756  97.2%   357  195s
     16220  9243     cutoff   44         5.67077    0.17013  97.0%   354  200s
     16814  9576    1.47820   28   34    5.67077    0.17560  96.9%   353  205s
     17341  9878    1.34059   33   36    5.67077    0.19578  96.5%   352  210s
     17940 10190    3.15518   35   29    5.67077    0.21039  96.3%   351  215s
     18444 10466    1.07543   34   31    5.67077    0.21875  96.1%   350  220s
     18950 10727    0.72849   37   28    5.67077    0.22755  96.0%   350  225s
     19284 10914    3.41916   42   26    5.67077    0.23518  95.9%   348  230s
    H19800 11214                       5.6707660    0.24476  95.7%   347  234s
     19841 11235    5.52024   42   24    5.67077    0.24476  95.7%   347  235s
     20378 11493    3.61578   45   21    5.67077    0.25461  95.5%   346  240s
     20977 11828    1.81839   37   38    5.67077    0.26759  95.3%   345  245s
     21541 12113    2.47712   27   30    5.67077    0.27389  95.2%   344  250s
     22224 12456    1.03707   26   35    5.67077    0.28385  95.0%   341  255s
     22955 12836    4.02207   34   30    5.67077    0.29661  94.8%   339  260s
     23577 13153    0.62622   31   40    5.67077    0.30467  94.6%   338  265s
     24270 13535    4.01205   35   34    5.67077    0.31365  94.5%   336  270s
     24974 13897    4.05355   37   29    5.67077    0.32615  94.2%   335  275s
     25583 14212    0.33648   31   34    5.67077    0.33648  94.1%   334  280s
     26336 14619    4.44802   32   26    5.67077    0.35279  93.8%   332  285s
     27033 14957    3.58167   32   32    5.67077    0.36465  93.6%   330  290s
     27695 15292    3.04807   35   37    5.67077    0.37874  93.3%   329  295s
    
    Cutting planes:
      Gomory: 1
      MIR: 4
      Flow cover: 16
    
    Explored 28449 nodes (9414407 simplex iterations) in 300.00 seconds (327.02 work units)
    Thread count was 1 (of 96 available processors)
    
    Solution count 9: 5.67077 5.93185 6.18405 ... 10.3965
    
    Time limit reached
    Best objective 5.670765989275e+00, best bound 3.934721389921e-01, gap 93.0614%
    
    User-callback calls 28609, time in user-callback 0.00 sec

--- Reading solution for model GAMS_MODEL
***
*** Solver did not provide marginals for model GAMS_MODEL
***
--- Executing after solve: elapsed 0:05:00.085
--- model.gms(6745) 5 Mb
--- model.gms(9796) 7 Mb
--- Putfile results /local/scratch/a/sgusev/repos/k_means/data/gams_gurobi_gdp.hull_exact/no_mode/2026-02-15_07-08-00/original/results.dat
--- Putfile statresults /local/scratch/a/sgusev/repos/k_means/data/gams_gurobi_gdp.hull_exact/no_mode/2026-02-15_07-08-00/original/resultsstat.dat
*** Status: Normal completion
--- Job model.gms Stop 02/15/26 07:13:01 elapsed 0:05:00.090
Original problem solved. Time taken: 300.76066541671753 seconds
Original objective value: 5.670765989274672
